
;this file is automatically generated: Tue Oct 27 10:35:00 CST 2020

;declarations generated

(declare-fun oclExcludes ( Int Int) Bool)
(declare-fun Cardinality ( Int) Int)
(declare-fun type_61e46d60_6c1c_45d5_85d6_a0f389c5a294_Class16 ( Int) Bool)
(declare-fun type_61e46d60_6c1c_45d5_85d6_a0f389c5a294_Class19 ( Int) Bool)
(declare-fun type_61e46d60_6c1c_45d5_85d6_a0f389c5a294_Class8 ( Int) Bool)
(declare-fun oclSelect ( Int Bool) Int)
(declare-fun obj_d5fa1202_84c1_4fa2_9945_d5a3c84d6b1f ( Int) Int)
(declare-fun Enum0 ( Int) Int)
(declare-fun Enum1 ( Int) Int)
(declare-fun Enum2 ( Int) Int)
(declare-fun type_61e46d60_6c1c_45d5_85d6_a0f389c5a294_Class24 ( Int) Bool)
(declare-fun type_61e46d60_6c1c_45d5_85d6_a0f389c5a294_Class25 ( Int) Bool)
(declare-fun class20_Class20BoolAttr1 ( Int) Bool)
(declare-fun type_61e46d60_6c1c_45d5_85d6_a0f389c5a294_Class20 ( Int) Bool)
(declare-fun container_ ( Int) Int)
(declare-fun oclIncludes ( Int Int) Bool)
(declare-fun ObjAt ( Int Int) Int)

;formula(s) generated
(assert (! (forall ((v Int)) (=> (and (and (and (and (and ( type_61e46d60_6c1c_45d5_85d6_a0f389c5a294_Class20 v )  ( type_61e46d60_6c1c_45d5_85d6_a0f389c5a294_Class25 v ) ) ( type_61e46d60_6c1c_45d5_85d6_a0f389c5a294_Class24 v ) ) ( type_61e46d60_6c1c_45d5_85d6_a0f389c5a294_Class16 v ) ) ( type_61e46d60_6c1c_45d5_85d6_a0f389c5a294_Class8 v ) ) ( type_61e46d60_6c1c_45d5_85d6_a0f389c5a294_Class19 v ) ) ( class20_Class20BoolAttr1 ( obj_d5fa1202_84c1_4fa2_9945_d5a3c84d6b1f v )  ) )):named l0))
(assert (exists ((o Int)) (and (and (and (and (and ( type_61e46d60_6c1c_45d5_85d6_a0f389c5a294_Class20 ( obj_d5fa1202_84c1_4fa2_9945_d5a3c84d6b1f o )  )  ( type_61e46d60_6c1c_45d5_85d6_a0f389c5a294_Class25 ( obj_d5fa1202_84c1_4fa2_9945_d5a3c84d6b1f o )  ) ) ( type_61e46d60_6c1c_45d5_85d6_a0f389c5a294_Class24 ( obj_d5fa1202_84c1_4fa2_9945_d5a3c84d6b1f o )  ) ) ( type_61e46d60_6c1c_45d5_85d6_a0f389c5a294_Class16 ( obj_d5fa1202_84c1_4fa2_9945_d5a3c84d6b1f o )  ) ) ( type_61e46d60_6c1c_45d5_85d6_a0f389c5a294_Class8 ( obj_d5fa1202_84c1_4fa2_9945_d5a3c84d6b1f o )  ) ) ( type_61e46d60_6c1c_45d5_85d6_a0f389c5a294_Class19 ( obj_d5fa1202_84c1_4fa2_9945_d5a3c84d6b1f o )  ) )))

 ;end of formula 